(set-logic HORN)
(declare-fun inv ((_ BitVec 32) (_ BitVec 32) ) Bool)
(assert (forall ((x (_ BitVec 32)) (y (_ BitVec 32))) 
       (=> ( and ( = x #x00000000 ) ( = y #x00000001 ) ) (inv x y))))
(assert (forall ((x (_ BitVec 32)) (y (_ BitVec 32)) (x! (_ BitVec 32)) (y! (_ BitVec 32))) 
       (=> (and (inv x y) ( and ( bvslt x #x00000006 ) ( = x! ( bvadd x #x00000001 ) ) ( = y! ( bvmul y #x00000002 ) ) )) (inv x! y!))))
(assert (forall ((x (_ BitVec 32)) (y (_ BitVec 32))) 
       (=> (inv x y) ( or ( = #x00000001 ( bvurem y #x00000003 ) ) ( bvslt x #x00000006 ) ))))
(check-sat)
